20	5	2	0
0	1	20	5	8	21	20	12	19	17	18	1	13	14	10	2	15	7	16	3	6	4	9	[0 0 0 0 0]	[0 0 0 0 0]	[0]	[0 0 0 0 0]	[0 0 0 0 0]	[0 0 0 0 0]	[0 0 0 0 0]	[0 0 0 0 0]	[0 0 0 0 0]	[0 0 0 0 0]	[0 0 0 0 0]	[0 0 0 0 0]	[0 0 0 0 0]	[0 0 0 0 0]	[0 0 0 0 0]	[0 0 0 0 0]	[0 0 0 0 0]	[0 0 0 0 0]	[0 0 0 0 0]	[0 0 0 0 0]
1	5	2	21	17	[1 10 7 2 2]	[0 0 1 0 0 12 9 13 29 0 6 -5 -4 11 -4 3 -1 0 0 1 4 5 5 5 3]
2	5	2	21	19	[2 1 10 8 1]	[1 6 2 0 0 1 0 0 3 0 -1 9 -7 24 1 -7 14 -2 2 1 3 0 0 2 3]
3	5	2	21	13	[1 4 1 9 1]	[2 3 1 1 0 3 -2 9 10 12 0 0 0 1 1 9 -7 24 24 23 0 0 0 1 1]
4	5	3	21	12	18	[1 5 3 6 8]	[2 3 2 2 0 -1 15 9 7 13 2 -1 9 0 -2 15 18 5 -5 7 16 -5 20 -6 10]	[3 2 0 3 2 3 4 11 5 5 2 -1 9 6 7 11 18 0 8 2 18 10 -6 -2 6]
5	5	2	11	21	[2 0 5 2 0 1 6 2 3 3 0 2 3 3 3 6 19 12 15 12 22 0 0 22 18]	[2 2 1 9 10]
6	5	2	10	21	[0 3 0 2 0 8 2 7 5 0 24 0 23 -2 4 0 2 1 3 2 -3 18 1 15 3]	[6 4 9 1 6]
7	5	2	8	21	[7 4 -2 0 4 -6 -6 1 -2 -3 8 9 2 5 8 2 2 2 0 1 4 0 5 3 -1]	[3 8 3 1 2]
8	5	2	11	21	[11 0 2 12 1 0 2 0 2 2 10 15 11 -5 6 0 6 2 2 6 18 13 10 3 21]	[4 1 6 2 7]
9	5	2	20	21	[3 2 -1 5 6 2 1 -1 0 -1 3 0 0 2 0 3 9 11 1 0 20 8 16 -7 3]	[2 2 2 4 9]
10	5	2	15	21	[6 14 2 12 8 23 -1 2 24 -3 11 3 17 24 -6 2 -7 22 -7 0 13 -4 0 10 8]	[6 9 8 8 5]
11	5	2	21	14	[8 8 6 6 3]	[21 0 23 11 20 11 14 0 -1 2 17 9 12 6 13 0 6 7 17 5 7 -1 9 3 9]
12	5	3	16	21	7	[-7 -17 -4 -9 -8 -13 -11 -8 -15 -18 -7 -7 -15 -17 -7 -6 -9 -12 -14 -14 -1 -6 -4 -10 -4]	[10 9 1 8 10]	[14 7 21 26 12 16 4 17 26 13 3 3 0 3 1 11 8 -3 7 18 -7 3 15 8 19]
13	5	2	16	21	[1 3 2 0 1 20 -7 18 22 19 20 23 -5 10 0 2 14 -5 -4 2 5 15 0 13 5]	[1 8 8 7 5]
14	5	2	21	6	[4 4 10 2 6]	[-1 10 5 2 4 6 2 -1 -2 -3 -9 14 -5 5 15 3 1 4 1 1 7 3 5 7 3]
15	5	3	21	9	10	[9 4 4 5 10]	[21 10 -1 2 10 2 12 6 8 7 -1 10 2 0 0 13 -4 7 -2 14 2 28 -8 -8 2]	[-8 -5 -10 -7 -19 -18 -4 -9 -4 -15 -20 -19 -18 -15 -13 -11 -20 -18 -13 -19 -5 -20 -16 -5 -10]
16	5	2	12	21	[13 2 -6 22 14 -4 -3 11 0 5 6 2 0 6 4 4 0 15 6 4 6 6 -4 14 13]	[8 6 2 7 5]
17	5	1	21	[1 8 10 9 8]
18	5	1	21	[10 7 2 2 8]
19	5	2	21	2	[6 2 2 8 2]	[-8 -20 -15 -19 -5 -1 -8 -6 -7 -5 -18 -19 -2 -1 -19 -9 -11 -14 -19 -7 -7 -1 -7 -2 -8]
20	5	1	21	[9 10 5 8 8]
21	1	0
0	1	0	0	0	0	0	0	0	0
1	1	1	3	3	5	1	1	3	2
	2	10	3	3	5	1	1	3	2
	3	7	3	3	5	1	1	3	2
	4	2	3	3	5	1	1	3	2
	5	2	3	3	5	1	1	3	2
2	1	2	4	2	4	3	1	3	3
	2	1	4	2	4	3	1	3	3
	3	10	4	2	4	3	1	3	3
	4	8	4	2	4	3	1	3	3
	5	1	4	2	4	3	1	3	3
3	1	1	4	2	2	1	3	2	4
	2	4	4	2	2	1	3	2	4
	3	1	4	2	2	1	3	2	4
	4	9	4	2	2	1	3	2	4
	5	1	4	2	2	1	3	2	4
4	1	1	1	4	1	3	3	5	5
	2	5	1	4	1	3	3	5	5
	3	3	1	4	1	3	3	5	5
	4	6	1	4	1	3	3	5	5
	5	8	1	4	1	3	3	5	5
5	1	2	3	3	1	3	5	3	3
	2	2	3	3	1	3	5	3	3
	3	1	3	3	1	3	5	3	3
	4	9	3	3	1	3	5	3	3
	5	10	3	3	1	3	5	3	3
6	1	6	5	3	4	5	1	2	2
	2	4	5	3	4	5	1	2	2
	3	9	5	3	4	5	1	2	2
	4	1	5	3	4	5	1	2	2
	5	6	5	3	4	5	1	2	2
7	1	3	4	3	1	5	4	2	1
	2	8	4	3	1	5	4	2	1
	3	3	4	3	1	5	4	2	1
	4	1	4	3	1	5	4	2	1
	5	2	4	3	1	5	4	2	1
8	1	4	5	5	2	4	3	3	4
	2	1	5	5	2	4	3	3	4
	3	6	5	5	2	4	3	3	4
	4	2	5	5	2	4	3	3	4
	5	7	5	5	2	4	3	3	4
9	1	2	4	2	3	4	1	3	5
	2	2	4	2	3	4	1	3	5
	3	2	4	2	3	4	1	3	5
	4	4	4	2	3	4	1	3	5
	5	9	4	2	3	4	1	3	5
10	1	6	1	2	2	2	4	1	5
	2	9	1	2	2	2	4	1	5
	3	8	1	2	2	2	4	1	5
	4	8	1	2	2	2	4	1	5
	5	5	1	2	2	2	4	1	5
11	1	8	2	5	4	5	3	5	1
	2	8	2	5	4	5	3	5	1
	3	6	2	5	4	5	3	5	1
	4	6	2	5	4	5	3	5	1
	5	3	2	5	4	5	3	5	1
12	1	10	2	3	1	3	5	1	2
	2	9	2	3	1	3	5	1	2
	3	1	2	3	1	3	5	1	2
	4	8	2	3	1	3	5	1	2
	5	10	2	3	1	3	5	1	2
13	1	1	5	5	3	1	2	2	4
	2	8	5	5	3	1	2	2	4
	3	8	5	5	3	1	2	2	4
	4	7	5	5	3	1	2	2	4
	5	5	5	5	3	1	2	2	4
14	1	4	3	3	1	3	5	4	3
	2	4	3	3	1	3	5	4	3
	3	10	3	3	1	3	5	4	3
	4	2	3	3	1	3	5	4	3
	5	6	3	3	1	3	5	4	3
15	1	9	2	4	5	3	4	5	4
	2	4	2	4	5	3	4	5	4
	3	4	2	4	5	3	4	5	4
	4	5	2	4	5	3	4	5	4
	5	10	2	4	5	3	4	5	4
16	1	8	4	5	3	3	4	1	2
	2	6	4	5	3	3	4	1	2
	3	2	4	5	3	3	4	1	2
	4	7	4	5	3	3	4	1	2
	5	5	4	5	3	3	4	1	2
17	1	1	5	5	1	1	4	1	4
	2	8	5	5	1	1	4	1	4
	3	10	5	5	1	1	4	1	4
	4	9	5	5	1	1	4	1	4
	5	8	5	5	1	1	4	1	4
18	1	10	4	2	4	5	5	2	4
	2	7	4	2	4	5	5	2	4
	3	2	4	2	4	5	5	2	4
	4	2	4	2	4	5	5	2	4
	5	8	4	2	4	5	5	2	4
19	1	6	2	3	4	4	1	3	2
	2	2	2	3	4	4	1	3	2
	3	2	2	3	4	4	1	3	2
	4	8	2	3	4	4	1	3	2
	5	2	2	3	4	4	1	3	2
20	1	9	1	3	5	1	4	2	1
	2	10	1	3	5	1	4	2	1
	3	5	1	3	5	1	4	2	1
	4	8	1	3	5	1	4	2	1
	5	8	1	3	5	1	4	2	1
21	1	0	0	0	0	0	0	0	0
5	5	5	5	5	53	114
